44
400
279	1
275	1
267	1
266	2
253	1
251	1
246	1
243	1
234	1
228	1
227	3
221	1
219	2
214	1
207	1
206	1
204	1
201	1
200	1
199	2
185	1
173	1
170	1
169	1
167	1
166	1
164	1
158	1
156	1
147	1
139	1
131	1
128	1
125	1
121	1
118	1
115	1
109	1
108	1
105	2
95	1
88	1
87	1
86	1
